language ESSENCE' 1.0

letting Ticks_Occurrence be
        [true, false, false, false, false, false, false, false, false, false, false, false, false, false, false, false,
         false, false, false, false, false, false, false, false, false, false, false, false, false, false, false, false,
         false, false, false, false, false, false, false, false, false, false, false, false, false, false, false, false,
         false, false, true;
             int(0..50)]
